(set-info :origin "driver benchmark extracted from Microsoft SDV")
(set-logic HORN)
(declare-fun Proc40 (Int Int Bool) Bool)
(declare-fun Proc32 (Int Int Bool Int) Bool)
(declare-fun Proc39 (Int Int Bool Int Int Int Int) Bool)
(declare-fun Proc21 (Int Int Bool Int) Bool)
(declare-fun Proc43 (Int Int Bool) Bool)
(declare-fun Proc16 (Int Int Bool) Bool)
(declare-fun Proc26 (Int Int Bool Int) Bool)
(declare-fun Proc14 (Int Int Bool Int Int Int Int) Bool)
(declare-fun Proc23 (Int Int Bool Int) Bool)
(declare-fun Proc5 (Int Int Bool Int Int Int Int Int Int) Bool)
(declare-fun Proc31 (Int Int Bool Int) Bool)
(declare-fun Proc25 (Int Int Bool Int) Bool)
(declare-fun Proc24 (Int Int Bool Int) Bool)
(declare-fun Proc36 (Int Int Bool) Bool)
(declare-fun Proc22 (Int Int Bool Int) Bool)
(declare-fun Proc6 (Int Int Bool Int Int Int) Bool)
(declare-fun Proc0 (Int Int Bool Int) Bool)
(declare-fun Proc13 (Int Int Bool Int Int Int Int) Bool)
(declare-fun Proc41 (Int Int Bool) Bool)
(declare-fun Proc27 (Int Int Bool Int) Bool)
(declare-fun Proc3 (Int Int Bool Int Int Int) Bool)
(declare-fun Proc9 (Int Int Bool Int) Bool)
(declare-fun Proc42 (Int Int Bool Int Int) Bool)
(declare-fun Proc1
             (Int Int Bool Int Int Int Int Int Int Int Int Int Int Int Int)
             Bool)
(declare-fun Proc11 (Int Int Bool Int Int Int) Bool)
(declare-fun Proc29 (Int Int Bool Int) Bool)
(declare-fun Proc38 (Int Int Bool Int) Bool)
(declare-fun Proc34 (Int Int Bool Int Int) Bool)
(declare-fun Proc37 (Int Int Bool Int Int) Bool)
(declare-fun Proc12 (Int Int Bool Int Int) Bool)
(declare-fun Proc17 (Int Int Bool Int) Bool)
(declare-fun Proc33 (Int Int Bool Int) Bool)
(declare-fun Proc18 (Int Int Bool Int) Bool)
(declare-fun Proc8 (Int Int Bool Int Int Int Int) Bool)
(declare-fun Proc20 (Int Int Bool Int Int Bool Int) Bool)
(declare-fun Proc35 (Int Int Bool Int) Bool)
(declare-fun Proc2 (Int Int Bool Int Int Int) Bool)
(declare-fun Proc4 (Int Int Bool Int Int Int) Bool)
(declare-fun Proc30 (Int Int Bool Int Int Int) Bool)
(declare-fun Proc15 (Int Int Bool) Bool)
(declare-fun Proc44 (Int Int Bool Int Bool Int Int) Bool)
(declare-fun Proc19 (Int Int Bool Int Int) Bool)
(declare-fun Proc28 (Int Int Bool Int) Bool)
(declare-fun Proc7 (Int Int Bool Int Int) Bool)
(declare-fun Proc10 (Int Int Bool Int Int Int Int) Bool)
(assert (forall ((A Int)
         (B Int)
         (C Int)
         (D Int)
         (E Int)
         (F Int)
         (G Int)
         (H Int)
         (I Int)
         (J Bool))
  (let ((a!1 (not (and (not (= F 0))
                       (= E (+ 24 F))
                       (Proc1 I H J E 99 F 0 D 0 0 0 1 1 1 C)))))
  (let ((a!2 (not (or (not J)
                      (not (Proc0 I H J 0))
                      (= G 0)
                      (= F 0)
                      a!1
                      (not (= B 0))))))
    (=> a!2 (Proc2 I H J G A B))))))
(assert (forall ((A Int) (B Int) (C Int) (D Int) (E Int) (F Int) (J Bool))
  (let ((a!1 (not (or (not J) (not (Proc3 F E J D C B)) (not (= A 0))))))
    (=> a!1 (Proc4 F E J D C A)))))
(assert (forall ((A Int) (B Int) (C Int) (D Int) (E Int) (F Int) (G Int) (J Bool))
  (let ((a!1 (not (or (not J)
                      (= G 0)
                      (not (Proc5 F E J D 100 C 1 1 1))
                      (not (Proc3 F E J G D B))
                      (not (= A B))))))
    (=> a!1 (Proc6 F E J G D A)))))
(assert (forall ((A Int)
         (B Int)
         (C Int)
         (D Int)
         (E Int)
         (F Int)
         (G Int)
         (H Int)
         (I Int)
         (J Bool)
         (K Int))
  (let ((a!1 (and (= K I) (not (<= H (+ 4 K)))))
        (a!2 (and (not (<= H I)) (= G H) (not (<= F (+ 4 G))) (not (<= F H)))))
  (let ((a!3 (or (not J)
                 (not a!1)
                 (not a!2)
                 (not (Proc7 F E J G K))
                 (not (and (= D 0) (= C F))))))
    (=> (not a!3) (Proc8 I E J B A D C))))))
(assert (forall ((A Int)
         (B Int)
         (C Int)
         (D Int)
         (E Int)
         (F Int)
         (G Int)
         (H Int)
         (J Bool))
  (let ((a!1 (and (not (<= F (+ 4 H))) (not (<= F G)))))
  (let ((a!2 (or (not J)
                 (not (= H G))
                 (not a!1)
                 (not (Proc9 F E J H))
                 (not (and (= D 0) (= C F))))))
    (=> (not a!2) (Proc10 G E J B A D C))))))
(assert (forall ((A Int) (B Int) (C Int) (J Bool))
  (=> (not (or (not J) (= C 0))) (Proc9 B A J C))))
(assert (forall ((A Int)
         (B Int)
         (C Int)
         (D Int)
         (E Int)
         (F Int)
         (G Int)
         (H Int)
         (I Int)
         (J Bool)
         (K Int)
         (L Int)
         (M Int)
         (N Int)
         (O Int)
         (P Int)
         (Q Int)
         (R Int))
  (let ((a!1 (not (and (= P (- 1073741670)) (= R P))))
        (a!2 (not (and (= O (- 1073741811)) (= R O)))))
  (let ((a!3 (and (or (not (= R 0)) (not (= Q R)))
                  (or a!1 (not (= Q R)))
                  (or a!2 (not (= Q R))))))
    (=> (not (or (not J) a!3)) (Proc1 N M J L K I H G F E D C B A Q))))))
(assert (forall ((A Int) (B Int) (C Int) (D Int) (E Int) (J Bool))
  (let ((a!1 (not (or (not J) (= E 0) (not (= D 259))))))
    (=> a!1 (Proc11 C B J A E D)))))
(assert (forall ((A Int)
         (B Int)
         (C Int)
         (D Int)
         (E Int)
         (F Int)
         (G Int)
         (H Int)
         (I Int)
         (J Bool))
  (let ((a!1 (and (not (<= G (+ 1 I))) (not (<= G H)))))
  (let ((a!2 (or (not J)
                 (not (= I H))
                 (not a!1)
                 (not (Proc12 G F J I E))
                 (not (and (= D G) (= C E))))))
    (=> (not a!2) (Proc13 H F J B A D C))))))
(assert (forall ((A Int) (B Int) (C Int) (D Int) (J Bool))
  (let ((a!1 (not (or (not J) (not (= D 1))))))
    (=> a!1 (Proc12 C B J A D)))))
(assert (forall ((A Int)
         (B Int)
         (C Int)
         (D Int)
         (E Int)
         (F Int)
         (G Int)
         (H Int)
         (I Int)
         (J Bool)
         (K Int))
  (let ((a!1 (or (not (= E 1))
                 (not (and (= D E) (= C F)))
                 (not (and (= B C) (= A D)))))
        (a!2 (or (= E 1)
                 (not (and (= D E) (= C F)))
                 (not (and (= B C) (= A D)))))
        (a!3 (or (not (= K 0))
                 (not (and (= D H) (= C I)))
                 (not (and (= B C) (= A D))))))
  (let ((a!4 (and (or (= K 0) (not (Proc13 I H J G K F E)) (and a!1 a!2)) a!3)))
    (=> (not (or (not J) a!4)) (Proc14 I H J G K B A))))))
(assert (forall ((A Int) (B Int) (J Bool)) (=> J (Proc15 B A J))))
(assert (forall ((A Int) (B Int) (J Bool)) (=> J (Proc16 B A J))))
(assert (forall ((A Int) (B Int) (C Int) (J Bool))
  (let ((a!1 (not (or (not J) (not (= C 0))))))
    (=> a!1 (Proc17 B A J C)))))
(assert (forall ((A Int)
         (B Int)
         (C Int)
         (D Int)
         (E Int)
         (F Int)
         (G Int)
         (H Int)
         (I Int)
         (J Bool)
         (K Int)
         (L Int)
         (M Int)
         (S Bool)
         (T Bool)
         (U Bool))
  (let ((a!1 (not (and (not (<= M 0)) (Proc18 M L U K))))
        (a!2 (not (and (= D F) (= C G) (= S T) (= B H)))))
  (let ((a!3 (or (= G 0) (not (and (= F E) (not T))) a!2))
        (a!4 (or (not (and (= G 0) (= J U))) (not (and (= F A) (= T J))) a!2)))
  (let ((a!5 (and (or (= G 1) (and a!3 a!4)) (or (not (= G 1)) (and a!3 a!4)))))
  (let ((a!6 (not (or (not U)
                      a!1
                      (not (Proc17 K L U I))
                      (not (Proc16 K I U))
                      (not (Proc15 K I U))
                      (not (Proc19 K I U H G))
                      a!5))))
    (=> a!6 (Proc20 M L U D C S B))))))))
(assert (forall ((A Int) (B Int) (C Int) (J Bool))
  (let ((a!1 (not (or (not J) (not (= C 1))))))
    (=> a!1 (Proc21 B A J C)))))
(assert (forall ((A Int) (B Int) (C Int) (J Bool))
  (let ((a!1 (not (or (not J) (not (= C 0))))))
    (=> a!1 (Proc22 B A J C)))))
(assert (forall ((A Int) (B Int) (C Int) (J Bool))
  (let ((a!1 (not (or (not J) (not (= C 1))))))
    (=> a!1 (Proc23 B A J C)))))
(assert (forall ((A Int) (B Int) (C Int) (J Bool))
  (let ((a!1 (not (or (not J) (not (= C 0))))))
    (=> a!1 (Proc24 B A J C)))))
(assert (forall ((A Int) (B Int) (C Int) (J Bool))
  (let ((a!1 (not (or (not J) (not (= C 1))))))
    (=> a!1 (Proc25 B A J C)))))
(assert (forall ((A Int) (B Int) (C Int) (J Bool))
  (let ((a!1 (not (or (not J) (not (= C 1))))))
    (=> a!1 (Proc26 B A J C)))))
(assert (forall ((A Int) (B Int) (C Int) (J Bool))
  (let ((a!1 (not (or (not J) (not (= C 1))))))
    (=> a!1 (Proc27 B A J C)))))
(assert (forall ((A Int) (B Int) (C Int) (J Bool))
  (let ((a!1 (not (or (not J) (not (= C 1))))))
    (=> a!1 (Proc28 B A J C)))))
(assert (forall ((A Int) (B Int) (C Int) (J Bool))
  (let ((a!1 (not (or (not J) (not (= C 1))))))
    (=> a!1 (Proc29 B A J C)))))
(assert (forall ((A Int)
         (B Int)
         (C Int)
         (D Int)
         (E Int)
         (F Int)
         (G Int)
         (H Int)
         (I Int)
         (J Bool))
  (let ((a!1 (and (not (<= G (+ 1 I))) (not (<= G H))))
        (a!2 (not (and (= C 0) (= B E) (= A D)))))
  (let ((a!3 (and (or (not (= D 1)) a!2) (or (= D 1) a!2))))
  (let ((a!4 (not (or (not J)
                      (not (= I H))
                      (not a!1)
                      (not (Proc14 G F J I 0 E D))
                      a!3))))
    (=> a!4 (Proc30 H F J C B A)))))))
(assert (forall ((A Int) (B Int) (C Int) (J Bool))
  (let ((a!1 (not (or (not J) (not (= C 0))))))
    (=> a!1 (Proc31 B A J C)))))
(assert (forall ((A Int) (B Int) (C Int) (D Int) (J Bool))
  (let ((a!1 (or (not J) (not (= D (- 1073741823))) (not (= C D)))))
    (=> (not a!1) (Proc32 B A J C)))))
(assert (forall ((A Int) (B Int) (C Int) (J Bool)) (=> J (Proc0 C B J A))))
(assert (forall ((A Int) (B Int) (C Int) (D Int) (E Int) (F Int) (J Bool))
  (let ((a!1 (not (or (not J) (not (Proc11 F E J D C B)) (not (= A B))))))
    (=> a!1 (Proc3 F E J D C A)))))
(assert (forall ((A Int) (B Int) (C Int) (J Bool))
  (let ((a!1 (not (or (not J) (not (= C 1))))))
    (=> a!1 (Proc33 B A J C)))))
(assert (forall ((A Int)
         (B Int)
         (C Int)
         (D Int)
         (E Int)
         (F Int)
         (G Int)
         (H Int)
         (J Bool))
  (let ((a!1 (and (or (not (= H G)) (not (= F H)))
                  (or (not (= H E)) (not (= F H)))
                  (or (not (= H D)) (not (= F H))))))
    (=> (not (or (not J) a!1)) (Proc34 C B J A F)))))
(assert (forall ((A Int)
         (B Int)
         (C Int)
         (D Int)
         (E Int)
         (F Int)
         (G Int)
         (H Int)
         (I Int)
         (J Bool))
  (let ((a!1 (not (or (not J) (not (Proc34 I H J G F)) (= F 0)))))
    (=> a!1 (Proc5 I H J G E D C B A)))))
(assert (forall ((A Int) (B Int) (C Int) (D Int) (J Bool))
  (=> (not (or (not J) (= D 0))) (Proc7 C B J A D))))
(assert (forall ((A Int)
         (B Int)
         (C Int)
         (D Int)
         (E Int)
         (F Int)
         (G Int)
         (H Int)
         (I Int)
         (J Bool)
         (K Int)
         (L Int)
         (M Int)
         (N Int)
         (O Int)
         (P Int)
         (Q Int)
         (R Int)
         (V Int)
         (W Int)
         (X Int)
         (Y Int)
         (Z Int)
         (A1 Int)
         (B1 Int)
         (C1 Int)
         (D1 Int)
         (E1 Int)
         (F1 Int)
         (G1 Int)
         (H1 Int))
  (let ((a!1 (or (= E1 0)
                 (not (Proc2 G1 F1 J D1 H1 C1))
                 (not (and (= B1 C1) (= A1 G1)))
                 (not (Proc37 A1 F1 J B1 H1))
                 (= H1 0)
                 (not (and (= Z B1) (= Y A1)))))
        (a!2 (or (= E1 0)
                 (not (Proc32 G1 F1 J X))
                 (not (and (= B1 X) (= A1 G1)))
                 (not (Proc37 A1 F1 J B1 H1))
                 (= H1 0)
                 (not (and (= Z B1) (= Y A1)))))
        (a!3 (or (= E1 0)
                 (not (Proc8 G1 F1 J D1 H1 W V))
                 (not (and (= B1 W) (= A1 V)))
                 (not (Proc37 A1 F1 J B1 H1))
                 (= H1 0)
                 (not (and (= Z B1) (= Y A1)))))
        (a!4 (or (= E1 0)
                 (not (Proc32 G1 F1 J R))
                 (not (and (= B1 R) (= A1 G1)))
                 (not (Proc37 A1 F1 J B1 H1))
                 (= H1 0)
                 (not (and (= Z B1) (= Y A1)))))
        (a!5 (or (= E1 0)
                 (not (Proc32 G1 F1 J Q))
                 (not (and (= B1 Q) (= A1 G1)))
                 (not (Proc37 A1 F1 J B1 H1))
                 (= H1 0)
                 (not (and (= Z B1) (= Y A1)))))
        (a!6 (or (= E1 0)
                 (not (Proc32 G1 F1 J P))
                 (not (and (= B1 P) (= A1 G1)))
                 (not (Proc37 A1 F1 J B1 H1))
                 (= H1 0)
                 (not (and (= Z B1) (= Y A1)))))
        (a!7 (or (= E1 0)
                 (not (Proc32 G1 F1 J O))
                 (not (and (= B1 O) (= A1 G1)))
                 (not (Proc37 A1 F1 J B1 H1))
                 (= H1 0)
                 (not (and (= Z B1) (= Y A1)))))
        (a!8 (or (not (Proc32 G1 F1 J N))
                 (not (and (= B1 N) (= A1 G1)))
                 (not (Proc37 A1 F1 J B1 H1))
                 (= H1 0)
                 (not (and (= Z B1) (= Y A1)))))
        (a!9 (or (= E1 0)
                 (not (Proc32 G1 F1 J M))
                 (not (and (= B1 M) (= A1 G1)))
                 (not (Proc37 A1 F1 J B1 H1))
                 (= H1 0)
                 (not (and (= Z B1) (= Y A1)))))
        (a!10 (or (= E1 0)
                  (not (Proc32 G1 F1 J L))
                  (not (and (= B1 L) (= A1 G1)))
                  (not (Proc37 A1 F1 J B1 H1))
                  (= H1 0)
                  (not (and (= Z B1) (= Y A1)))))
        (a!11 (or (= E1 0)
                  (not (Proc32 G1 F1 J K))
                  (not (and (= B1 K) (= A1 G1)))
                  (not (Proc37 A1 F1 J B1 H1))
                  (= H1 0)
                  (not (and (= Z B1) (= Y A1)))))
        (a!12 (or (not (Proc32 G1 F1 J I))
                  (not (and (= B1 I) (= A1 G1)))
                  (not (Proc37 A1 F1 J B1 H1))
                  (= H1 0)
                  (not (and (= Z B1) (= Y A1)))))
        (a!13 (or (= E1 0)
                  (not (Proc32 G1 F1 J H))
                  (not (and (= B1 H) (= A1 G1)))
                  (not (Proc37 A1 F1 J B1 H1))
                  (= H1 0)
                  (not (and (= Z B1) (= Y A1)))))
        (a!14 (or (= E1 0)
                  (not (Proc38 G1 F1 J H1))
                  (not (Proc6 G1 F1 J D1 H1 G))
                  (not (and (= B1 G) (= A1 G1)))
                  (not (Proc37 A1 F1 J B1 H1))
                  (= H1 0)
                  (not (and (= Z B1) (= Y A1)))))
        (a!15 (or (= E1 0)
                  (not (Proc10 G1 F1 J D1 H1 F E))
                  (not (and (= B1 F) (= A1 E)))
                  (not (Proc37 A1 F1 J B1 H1))
                  (= H1 0)
                  (not (and (= Z B1) (= Y A1)))))
        (a!16 (or (not (Proc32 G1 F1 J D))
                  (not (and (= B1 D) (= A1 G1)))
                  (not (Proc37 A1 F1 J B1 H1))
                  (= H1 0)
                  (not (and (= Z B1) (= Y A1)))))
        (a!17 (or (= E1 0)
                  (not (Proc4 G1 F1 J D1 H1 C))
                  (not (and (= B1 C) (= A1 G1)))
                  (not (Proc37 A1 F1 J B1 H1))
                  (= H1 0)
                  (not (and (= Z B1) (= Y A1)))))
        (a!18 (or (not (= B 1))
                  (= B 0)
                  (= E1 0)
                  (not (Proc4 G1 F1 J D1 H1 C))
                  (not (and (= B1 C) (= A1 G1)))
                  (not (Proc37 A1 F1 J B1 H1))
                  (= H1 0)
                  (not (and (= Z B1) (= Y A1))))))
  (let ((a!19 (and (or (= E1 0) (and a!17 a!18))
                   (or (not (= A 1)) (= A 0) (= E1 0) (and a!17 a!18)))))
  (let ((a!20 (or (not J)
                  (= H1 0)
                  (not (Proc35 G1 F1 J H1))
                  (= E1 0)
                  (not (Proc36 G1 F1 J))
                  (and a!1
                       a!2
                       a!3
                       a!4
                       a!5
                       a!6
                       a!7
                       a!8
                       a!9
                       a!10
                       a!11
                       a!12
                       a!13
                       a!14
                       a!15
                       a!16
                       (or (= E1 0) a!19)))))
    (=> (not a!20) (Proc39 G1 F1 J D1 H1 Z Y)))))))
(assert (forall ((A Int) (B Int) (C Int) (D Int) (E Int) (J Bool))
  (let ((a!1 (not (or (not J)
                      (not (Proc40 E D J))
                      (not (Proc32 E D J C))
                      (not (Proc41 E D J))))))
    (=> a!1 (Proc42 E D J B A)))))
(assert (forall ((A Int) (B Int) (C Int) (D Int) (J Bool))
  (=> (not (or (not J) (= D 0) (= C 0))) (Proc38 B A J D))))
(assert (forall ((A Int) (B Int) (C Int) (J Bool))
  (=> (not (or (not J) (= C 0))) (Proc35 B A J C))))
(assert (forall ((A Int)
         (B Int)
         (C Int)
         (D Int)
         (E Int)
         (F Int)
         (G Int)
         (H Int)
         (I Int)
         (J Bool)
         (K Int)
         (L Int)
         (M Int)
         (N Int)
         (O Int)
         (P Int)
         (Q Int)
         (R Int)
         (V Int)
         (W Int)
         (X Int)
         (Y Int)
         (Z Int)
         (A1 Int)
         (B1 Int)
         (C1 Int))
  (let ((a!1 (or (not (and (= X 1) (= W Y))) (not (and (= V W) (= R X)))))
        (a!2 (or (= A1 0)
                 (not (Proc43 Y X J))
                 (not (Proc39 Y X J F E D C))
                 (not (= W C))
                 (not (and (= V W) (= R X)))))
        (a!3 (or (not (and (= A1 0) (= W Y))) (not (and (= V W) (= R X)))))
        (a!4 (or (not (= W Y)) (not (and (= V W) (= R X)))))
        (a!5 (or (= Z 0)
                 (not (Proc43 Y X J))
                 (not (and (Proc42 Y X J B A) (= W Y)))
                 (not (and (= V W) (= R X)))))
        (a!6 (or (not (and (= Z 0) (= W Y))) (not (and (= V W) (= R X))))))
  (let ((a!7 (and a!1
                  (or (= X 1)
                      (not (Proc24 Y X J Q))
                      (not (Proc29 Y X J P))
                      (not (Proc22 Y X J O))
                      (not (Proc26 Y X J N))
                      (not (Proc33 Y X J M))
                      (not (Proc31 Y X J L))
                      (not (Proc21 Y X J K))
                      (not (Proc27 Y X J I))
                      (not (Proc28 Y X J H))
                      (not (Proc25 Y X J G))
                      (and a!2 a!3 a!4 a!5 a!6)))))
  (let ((a!8 (not (or (not J)
                      (not (Proc23 C1 B1 J A1))
                      (not (Proc30 C1 B1 J Z Y X))
                      a!7))))
    (=> a!8 (Proc19 C1 B1 J V R)))))))
(assert (forall ((A Int) (B Int) (J Bool)) (=> J (Proc36 B A J))))
(assert (forall ((A Int) (B Int) (C Int) (D Int) (J Bool)) (=> J (Proc37 D C J B A))))
(assert (forall ((A Int) (B Int) (J Bool)) (=> J (Proc43 B A J))))
(assert (forall ((A Int) (B Int) (J Bool)) (=> J (Proc40 B A J))))
(assert (forall ((A Int) (B Int) (J Bool)) (=> J (Proc41 B A J))))
(assert (forall ((A Int)
         (B Int)
         (C Int)
         (D Int)
         (E Int)
         (F Int)
         (G Int)
         (H Int)
         (I Int)
         (J Bool)
         (K Int)
         (L Int)
         (M Int)
         (N Int)
         (O Int)
         (P Int)
         (Q Int)
         (R Int)
         (V Int)
         (W Int)
         (X Int)
         (Y Int)
         (Z Int)
         (A1 Int)
         (B1 Int)
         (C1 Int)
         (D1 Int)
         (E1 Int)
         (F1 Int)
         (G1 Int)
         (H1 Int)
         (I1 Int)
         (J1 Int)
         (K1 Int)
         (L1 Int)
         (M1 Int)
         (N1 Int)
         (O1 Int)
         (P1 Int)
         (Q1 Int)
         (R1 Int)
         (S1 Int)
         (T1 Int)
         (U1 Int)
         (V1 Int)
         (W1 Int)
         (X1 Int)
         (Y1 Int)
         (Z1 Int)
         (A2 Int)
         (B2 Int)
         (C2 Int)
         (D2 Int)
         (E2 Int))
  (let ((a!1 (and (not (<= C2 (+ 4 E2))) (not (<= C2 D2))))
        (a!2 (and (= B2 C2)
                  (not (<= A2 (+ 332 B2)))
                  (not (<= A2 C2))
                  (= Z1 A2)
                  (not (<= Y1 (+ 4 Z1)))
                  (not (<= Y1 A2))
                  (= X1 Y1)
                  (not (<= W1 (+ 536 X1)))))
        (a!3 (and (not (<= W1 Y1))
                  (= V1 W1)
                  (not (<= U1 (+ 240 V1)))
                  (not (<= U1 W1))
                  (= T1 U1)
                  (not (<= S1 (+ 240 T1)))
                  (not (<= S1 U1))
                  (= R1 S1)
                  (not (<= Q1 (+ 536 R1)))
                  (not (<= Q1 S1))
                  (= P1 Q1)
                  (not (<= O1 (+ 240 P1)))
                  (not (<= O1 Q1))
                  (= N1 O1)
                  (not (<= M1 (+ 4 N1)))
                  (not (<= M1 O1))
                  (= L1 M1)
                  (not (<= K1 (+ 536 L1)))
                  (not (<= K1 M1))
                  (= J1 K1)
                  (not (<= I1 (+ 332 J1)))
                  (not (<= I1 K1))
                  (= H1 I1)
                  (not (<= G1 (+ 240 H1)))
                  (not (<= G1 I1))
                  (= F1 G1)
                  (not (<= E1 (+ 240 F1)))
                  (not (<= E1 G1))
                  (= D1 E1)
                  (not (<= C1 (+ 332 D1)))
                  (not (<= C1 E1))
                  (= B1 C1)
                  (not (<= A1 (+ 4 B1)))
                  (not (<= A1 C1))
                  (= Z A1)
                  (not (<= Y (+ 536 Z)))
                  (not (<= Y A1))
                  (= X Y)
                  (not (<= W (+ 240 X)))
                  (not (<= W Y))
                  (= V W)
                  (not (<= R (+ 240 V)))
                  (not (<= R W))
                  (= Q R)
                  (not (<= P (+ 240 Q)))
                  (not (<= P R))
                  (= O P)
                  (not (<= N (+ 240 O)))
                  (not (<= N P))
                  (= M N)
                  (not (<= L (+ 240 M)))
                  (not (<= L N))
                  (= K L)
                  (not (<= I (+ 40 K)))
                  (not (<= I L))
                  (= H I)
                  (not (<= G (+ 332 H)))
                  (not (<= G I))
                  (= F G)
                  (not (<= E (+ 4 F)))
                  (not (<= E G))
                  (= D E)
                  (not (<= C (+ 40 D)))
                  (not (<= C E)))))
  (let ((a!4 (not (or (not J)
                      (not (= E2 D2))
                      (not a!1)
                      (not a!2)
                      (not a!3)
                      (not (= B C))))))
    (=> a!4 (Proc18 D2 A J B))))))
(assert (forall ((A Int)
         (B Int)
         (C Int)
         (D Int)
         (E Int)
         (F Int)
         (G Int)
         (H Int)
         (J Bool)
         (S Bool)
         (T Bool))
  (let ((a!1 (or (not T) (not (and (Proc20 H G true F E S D) (not S))))))
    (=> (not a!1) (Proc44 H G T C J B A)))))
(assert (let ((a!1 (exists ((V0 Int)
                    (V1 Int)
                    (V2 Bool)
                    (V3 Int)
                    (V4 Bool)
                    (V5 Int)
                    (V6 Int))
             (not (=> (and (Proc44 V0 V1 V2 V3 V4 V5 V6) (not false)) false)))))
  (not a!1)))

(check-sat)
